c description: Random 3-CNF over 12 variables and 48 clauses
p cnf 12 48
5 7 -11 0
1 4 -10 0
4 -8 -10 0
-3 8 -10 0
-1 -8 12 0
2 7 12 0
-4 11 -12 0
-3 -4 -7 0
5 7 11 0
1 -2 5 0
-1 6 9 0
-1 2 5 0
-1 -9 -11 0
-3 -4 5 0
-5 -6 10 0
9 -10 12 0
-4 -5 8 0
-2 6 12 0
1 6 -12 0
1 -8 12 0
-1 -7 -10 0
-1 8 12 0
-2 3 -12 0
7 8 12 0
3 -9 -11 0
-2 5 -10 0
-3 5 -8 0
-1 -2 9 0
-1 -4 -9 0
-2 6 8 0
-3 -6 7 0
-2 -8 9 0
-4 -5 10 0
-1 -5 -11 0
-3 -8 9 0
-2 -6 -10 0
2 5 8 0
-1 -4 7 0
1 -6 12 0
-2 7 9 0
-4 -7 9 0
-7 -8 11 0
-5 -9 12 0
-2 -4 7 0
-1 2 -3 0
3 -9 11 0
-6 -7 12 0
-5 9 -10 0